
   AbsCon 1.41 (January, 2014) - defaultConfiguration

   
   instance
        framework=CSP  name=Isomorphism-/cluster/gpg/ciaran/sip-benchmarks/benchmarks/LV/g19-/cluster/gpg/ciaran/sip-benchmarks/benchmarks/LV/g20
        parameters=/cluster/gpg/ciaran/sip-benchmarks/benchmarks/LV/g19,/cluster/gpg/ciaran/sip-benchmarks/benchmarks/LV/g20
      

   loading variables...
        nbVariables=64  nbDomainTypes=1  nbTotalValues=4096  domainSizes=(64:64)
          =>  wckTime=0.177  cpuTime=0.29  mem=9M554

   loading objectives...

   loading constraints...
        nbConstraints=169  nbSpecificConstraints=1  nbExtensionStructures=(1,shared:167)  nbConflictsStructures=(1,shared:167,unbuilt:1)
        degrees=(3:4)(4:8)(5:20)(7:16)(9:16)  arities=(2:168)(64:1)  types=(AllDifferent:1)(ConstraintHardExtensionV-Bits:168)
          =>  wckTime=0.257  cpuTime=0.363  mem=8M304

   INFO : <!-- Start saving the XML representation -->

   INFO : <!-- Stop saving the XML representation of g20.xml -->

   Solver SolverBacktrack being built... 
          =>  wckTime=0.427  cpuTime=0.499  mem=21M531

   
   search
        run=0  nbConstraintChecks=0  depth=(min:6,max:37,avg:23)  nbEffectivePropagations=1387415452  nbRevisions=3102681460
        nbUselessRevisions=2529222889  nbAssignments=30995723  nbFailedAssignments=12860408  nbBacktracks=18135288  nbVisitedNodes=51025518
        nbRestartNogoods=0
          =>  wckTime=99999.572  cpuTime=99189.274  mem=32M275

   
   global
        nbConstraintChecks=0  nbEffectivePropagations=1387415452  nbRevisions=3102681460  nbUselessRevisions=2529222889  nbRestartNogoods=0
        solvingWckTime=99999.573  expiredTime=yes  totalExploration=no  nbFoundSolutions=0  Stop=EXCEEDED_TIME
          =>  wckTime=100000.001  cpuTime=99189.274  mem=32M275

s UNKNOWN
d NODES 30995723

   totalWckTime=99999.902  totalCpuTime=99189.275
